p wcnf 153 182 183 
1 -22 -108 0 
1 7 -45 0 
1 3 118 0 
1 -85 -43 0 
1 27 -135 0 
1 120 -68 0 
1 -51 -18 0 
1 107 -114 0 
1 45 133 0 
1 80 72 0 
1 106 -84 0 
1 128 59 0 
1 59 78 0 
1 125 -106 0 
1 93 133 0 
1 37 -16 0 
1 -14 63 0 
1 -112 -125 0 
1 -29 -105 0 
1 -33 113 0 
1 44 -88 0 
1 109 -23 0 
1 31 92 0 
1 118 14 0 
1 -27 45 0 
1 51 -8 0 
1 -107 -118 0 
1 -62 16 0 
1 -136 137 0 
1 74 98 0 
1 64 -97 0 
1 34 -21 0 
1 88 -148 0 
1 -100 -19 0 
1 1 139 0 
1 -144 -94 0 
1 116 -148 0 
1 112 -44 0 
1 -92 35 0 
1 -148 -149 0 
1 -28 -49 0 
1 -128 62 0 
1 25 38 0 
1 -26 66 0 
1 -88 42 0 
1 35 32 0 
1 48 -54 0 
1 -136 -1 0 
1 -109 -38 0 
1 35 -107 0 
1 -60 -88 0 
1 135 -121 0 
1 -78 4 0 
1 -28 71 0 
1 -109 -40 0 
1 -121 -84 0 
1 42 139 0 
1 48 -141 0 
1 31 11 0 
1 -141 -82 0 
1 -119 15 0 
1 79 -144 0 
1 66 -30 0 
1 19 -54 0 
1 38 98 0 
1 4 -126 0 
1 98 -140 0 
1 103 5 0 
1 127 -144 0 
1 -110 -1 0 
1 -63 -145 0 
1 -41 121 0 
1 -107 -8 0 
1 -52 62 0 
1 -102 -23 0 
1 -72 -18 0 
1 90 83 0 
1 -26 -122 0 
1 45 -140 0 
1 23 -34 0 
1 20 138 0 
1 -132 -131 0 
1 68 -116 0 
1 -80 98 0 
1 -122 77 0 
1 19 16 0 
1 74 79 0 
1 98 -65 0 
1 131 -7 0 
1 142 -126 0 
1 83 43 0 
1 -87 106 0 
1 53 72 0 
1 -143 108 0 
1 -106 -9 0 
1 87 -42 0 
1 134 -117 0 
1 -112 -7 0 
1 113 22 0 
1 150 38 0 
1 -77 -94 0 
1 37 -152 0 
1 26 84 0 
1 -67 -143 0 
1 102 64 0 
1 9 -37 0 
1 -13 -39 0 
1 110 -111 0 
1 18 73 0 
1 -112 86 0 
1 -148 -13 0 
1 131 -57 0 
1 1 15 0 
1 47 -133 0 
1 119 43 0 
1 -143 -149 0 
1 -96 123 0 
1 -20 32 0 
1 -72 117 0 
1 85 74 0 
1 116 77 0 
1 60 42 0 
1 -63 143 0 
1 -41 43 0 
1 -31 -138 0 
1 -103 85 0 
1 -69 -25 0 
1 55 94 0 
1 66 137 0 
1 -121 -37 0 
1 106 30 0 
1 -47 -145 0 
1 70 -13 0 
1 -86 -26 0 
1 -146 -34 0 
1 -21 -44 0 
1 -36 -133 0 
1 -118 -139 0 
1 -109 -4 0 
1 17 68 0 
1 132 -37 0 
1 -88 61 0 
1 -32 -8 0 
1 -89 -71 0 
1 73 -2 0 
1 141 123 0 
1 140 -34 0 
1 -152 38 0 
1 -103 42 0 
1 12 34 0 
1 -72 113 0 
1 115 125 0 
1 15 107 0 
1 -33 -78 0 
1 -75 -55 0 
1 -52 123 0 
1 114 35 0 
1 120 47 0 
1 -82 -30 0 
1 40 -104 0 
1 110 50 0 
1 -141 -63 0 
1 111 118 0 
1 -127 108 0 
1 41 -88 0 
1 74 138 0 
1 -60 117 0 
1 14 94 0 
1 143 -107 0 
1 -106 29 0 
1 127 -35 0 
1 -131 106 0 
1 15 25 0 
1 83 143 0 
1 79 149 0 
1 -100 -153 0 
1 146 73 0 
1 89 -78 0 
1 -29 -54 0 
1 57 -109 0 
1 153 91 0 
1 -47 18 0 
